33D32945 STP File, STP Format Version 1.0

SECTION Comments
Name "edge_n12_d4_s27"
Problem "Euclidean Steiner Tree Problem"
Remark "Generated with STPGenerator. 4 dimensions."
END

SECTION Graph
Nodes 12
END

SECTION Coordinates
DDDD 0 0.6598329719 0.6598329719 0.6598329719 0.6598329719
DDDD 1 0.1353963139 0.1353963139 0.1353963139 0.1353963139
DDDD 2 0.1522402149 0.1522402149 0.1522402149 0.1522402149
DDDD 3 0.1232835241 0.1232835241 0.1232835241 0.1232835241
DDDD 4 0.6977873504 0.6977873504 0.6977873504 0.6977873504
DDDD 5 0.4392972800 0.4392972800 0.4392972800 0.4392972800
DDDD 6 0.7240747631 0.7240747631 0.7240747631 0.7240747631
DDDD 7 0.4406859998 0.4406859998 0.4406859998 0.4406859998
DDDD 8 0.7210137708 0.7210137708 0.7210137708 0.7210137708
DDDD 9 0.2581046555 0.2581046555 0.2581046555 0.2581046555
DDDD 10 0.7259597377 0.7259597377 0.7259597377 0.7259597377
DDDD 11 0.3388851464 0.3388851464 0.3388851464 0.3388851464
END
